c Generated map
c Size: 13 * 13, weights in range: 1 to 10, walls: True, with ratio 0.1
c dim 4 of 4
c
p sp 169 259
c graph contains 169 nodes and 259 arcs
c
a 1 14 9
a 14 1 9
a 1 2 8
a 2 1 8
a 2 15 9
a 15 2 9
a 2 3 4
a 3 2 4
a 3 16 8
a 16 3 8
a 3 4 4
a 4 3 4
a 4 17 2
a 17 4 2
a 4 5 3
a 5 4 3
a 5 18 8
a 18 5 8
a 5 6 4
a 6 5 4
a 6 19 3
a 19 6 3
a 6 7 8
a 7 6 8
a 7 20 8
a 20 7 8
a 7 8 1
a 8 7 1
a 8 21 1
a 21 8 1
a 10 23 6
a 23 10 6
a 10 11 6
a 11 10 6
a 11 12 9
a 12 11 9
a 12 25 5
a 25 12 5
a 12 13 3
a 13 12 3
a 13 26 4
a 26 13 4
a 14 27 3
a 27 14 3
a 14 15 5
a 15 14 5
a 15 28 6
a 28 15 6
a 15 16 6
a 16 15 6
a 16 29 5
a 29 16 5
a 16 17 5
a 17 16 5
a 17 30 4
a 30 17 4
a 17 18 3
a 18 17 3
a 18 31 7
a 31 18 7
a 18 19 3
a 19 18 3
a 19 32 8
a 32 19 8
a 19 20 3
a 20 19 3
a 20 33 8
a 33 20 8
a 20 21 4
a 21 20 4
a 21 34 9
a 34 21 9
a 21 22 4
a 22 21 4
a 22 35 5
a 35 22 5
a 22 23 8
a 23 22 8
a 23 36 1
a 36 23 1
a 25 38 3
a 38 25 3
a 25 26 5
a 26 25 5
a 27 40 2
a 40 27 2
a 27 28 8
a 28 27 8
a 28 41 5
a 41 28 5
a 28 29 3
a 29 28 3
a 29 42 10
a 42 29 10
a 29 30 5
a 30 29 5
a 30 43 3
a 43 30 3
a 30 31 3
a 31 30 3
a 31 44 8
a 44 31 8
a 31 32 10
a 32 31 10
a 32 45 4
a 45 32 4
a 32 33 3
a 33 32 3
a 33 46 8
a 46 33 8
a 33 34 2
a 34 33 2
a 34 47 5
a 47 34 5
a 34 35 3
a 35 34 3
a 35 48 5
a 48 35 5
a 35 36 4
a 36 35 4
a 36 49 6
a 49 36 6
a 36 37 7
a 37 36 7
a 37 50 6
a 50 37 6
a 37 38 7
a 38 37 7
a 40 53 5
a 53 40 5
a 40 41 9
a 41 40 9
a 41 54 1
a 54 41 1
a 41 42 8
a 42 41 8
a 42 43 9
a 43 42 9
a 43 56 2
a 56 43 2
a 43 44 9
a 44 43 9
a 44 57 8
a 57 44 8
a 44 45 2
a 45 44 2
a 45 58 5
a 58 45 5
a 45 46 10
a 46 45 10
a 46 59 10
a 59 46 10
a 46 47 9
a 47 46 9
a 47 60 7
a 60 47 7
a 47 48 4
a 48 47 4
a 48 61 8
a 61 48 8
a 48 49 8
a 49 48 8
a 49 62 9
a 62 49 9
a 49 50 5
a 50 49 5
a 50 63 3
a 63 50 3
a 53 54 6
a 54 53 6
a 54 67 7
a 67 54 7
a 56 69 3
a 69 56 3
a 56 57 7
a 57 56 7
a 57 70 10
a 70 57 10
a 57 58 1
a 58 57 1
a 58 71 4
a 71 58 4
a 58 59 6
a 59 58 6
a 59 72 1
a 72 59 1
a 59 60 4
a 60 59 4
a 60 73 1
a 73 60 1
a 60 61 2
a 61 60 2
a 61 74 10
a 74 61 10
a 61 62 4
a 62 61 4
a 62 75 2
a 75 62 2
a 62 63 10
a 63 62 10
a 63 76 8
a 76 63 8
a 67 80 2
a 80 67 2
a 67 68 3
a 68 67 3
a 68 81 9
a 81 68 9
a 68 69 2
a 69 68 2
a 69 82 4
a 82 69 4
a 69 70 1
a 70 69 1
a 70 83 6
a 83 70 6
a 70 71 9
a 71 70 9
a 71 84 1
a 84 71 1
a 71 72 2
a 72 71 2
a 72 85 3
a 85 72 3
a 72 73 4
a 73 72 4
a 73 86 2
a 86 73 2
a 73 74 5
a 74 73 5
a 74 87 7
a 87 74 7
a 74 75 6
a 75 74 6
a 75 88 9
a 88 75 9
a 75 76 9
a 76 75 9
a 76 89 8
a 89 76 8
a 76 77 6
a 77 76 6
a 77 90 10
a 90 77 10
a 79 92 9
a 92 79 9
a 79 80 1
a 80 79 1
a 80 93 5
a 93 80 5
a 80 81 7
a 81 80 7
a 81 94 7
a 94 81 7
a 81 82 5
a 82 81 5
a 82 95 2
a 95 82 2
a 82 83 7
a 83 82 7
a 83 96 8
a 96 83 8
a 83 84 8
a 84 83 8
a 84 97 5
a 97 84 5
a 84 85 8
a 85 84 8
a 85 98 5
a 98 85 5
a 85 86 1
a 86 85 1
a 86 99 5
a 99 86 5
a 86 87 1
a 87 86 1
a 87 100 7
a 100 87 7
a 87 88 9
a 88 87 9
a 88 101 4
a 101 88 4
a 88 89 7
a 89 88 7
a 89 102 9
a 102 89 9
a 89 90 4
a 90 89 4
a 90 103 8
a 103 90 8
a 92 105 7
a 105 92 7
a 92 93 10
a 93 92 10
a 93 106 8
a 106 93 8
a 93 94 4
a 94 93 4
a 94 107 5
a 107 94 5
a 94 95 3
a 95 94 3
a 95 108 2
a 108 95 2
a 95 96 3
a 96 95 3
a 96 109 7
a 109 96 7
a 96 97 8
a 97 96 8
a 97 110 4
a 110 97 4
a 97 98 9
a 98 97 9
a 98 111 7
a 111 98 7
a 98 99 9
a 99 98 9
a 99 112 6
a 112 99 6
a 99 100 4
a 100 99 4
a 100 113 8
a 113 100 8
a 100 101 10
a 101 100 10
a 101 114 1
a 114 101 1
a 101 102 7
a 102 101 7
a 102 115 6
a 115 102 6
a 102 103 1
a 103 102 1
a 103 116 9
a 116 103 9
a 103 104 4
a 104 103 4
a 104 117 5
a 117 104 5
a 105 118 6
a 118 105 6
a 105 106 8
a 106 105 8
a 106 119 7
a 119 106 7
a 106 107 1
a 107 106 1
a 107 120 10
a 120 107 10
a 107 108 5
a 108 107 5
a 108 121 5
a 121 108 5
a 108 109 1
a 109 108 1
a 109 122 2
a 122 109 2
a 109 110 10
a 110 109 10
a 110 123 7
a 123 110 7
a 110 111 6
a 111 110 6
a 111 124 2
a 124 111 2
a 111 112 9
a 112 111 9
a 112 125 3
a 125 112 3
a 112 113 1
a 113 112 1
a 113 126 10
a 126 113 10
a 113 114 8
a 114 113 8
a 114 127 8
a 127 114 8
a 114 115 1
a 115 114 1
a 115 128 6
a 128 115 6
a 115 116 7
a 116 115 7
a 116 117 1
a 117 116 1
a 117 130 5
a 130 117 5
a 118 131 3
a 131 118 3
a 118 119 2
a 119 118 2
a 119 132 4
a 132 119 4
a 119 120 3
a 120 119 3
a 120 133 2
a 133 120 2
a 120 121 10
a 121 120 10
a 121 134 9
a 134 121 9
a 121 122 7
a 122 121 7
a 122 123 2
a 123 122 2
a 123 136 2
a 136 123 2
a 123 124 7
a 124 123 7
a 124 137 6
a 137 124 6
a 124 125 6
a 125 124 6
a 125 138 7
a 138 125 7
a 125 126 1
a 126 125 1
a 126 127 6
a 127 126 6
a 127 128 7
a 128 127 7
a 128 141 9
a 141 128 9
a 131 144 3
a 144 131 3
a 131 132 1
a 132 131 1
a 132 145 9
a 145 132 9
a 132 133 2
a 133 132 2
a 133 146 1
a 146 133 1
a 133 134 1
a 134 133 1
a 134 147 5
a 147 134 5
a 136 149 5
a 149 136 5
a 136 137 2
a 137 136 2
a 137 150 3
a 150 137 3
a 137 138 6
a 138 137 6
a 138 151 6
a 151 138 6
a 141 154 1
a 154 141 1
a 141 142 5
a 142 141 5
a 142 155 1
a 155 142 1
a 144 157 4
a 157 144 4
a 144 145 10
a 145 144 10
a 145 158 2
a 158 145 2
a 145 146 4
a 146 145 4
a 146 159 8
a 159 146 8
a 146 147 5
a 147 146 5
a 147 160 2
a 160 147 2
a 147 148 4
a 148 147 4
a 148 161 4
a 161 148 4
a 148 149 3
a 149 148 3
a 149 150 9
a 150 149 9
a 150 163 9
a 163 150 9
a 150 151 4
a 151 150 4
a 151 164 7
a 164 151 7
a 151 152 5
a 152 151 5
a 152 165 10
a 165 152 10
a 152 153 9
a 153 152 9
a 153 166 5
a 166 153 5
a 153 154 5
a 154 153 5
a 154 167 4
a 167 154 4
a 154 155 10
a 155 154 10
a 155 168 10
a 168 155 10
a 157 158 2
a 158 157 2
a 158 159 7
a 159 158 7
a 159 160 4
a 160 159 4
a 160 161 6
a 161 160 6
a 163 164 1
a 164 163 1
a 164 165 5
a 165 164 5
a 165 166 5
a 166 165 5
a 166 167 6
a 167 166 6
a 167 168 7
a 168 167 7
a 168 169 4
a 169 168 4
